
--- Job bchfcnet.gms Start 02/08/22 17:32:59 34.3.0 rac355f3 WEX-WEI x86 64bit/MS Windows
--- Applying:
    C:\GAMS\34\gmsprmNT.txt
--- GAMS Parameters defined
    Input C:\Users\dekhi\Desktop\gamsworld\FCNetLib\test\bchfcnet.gms
    PageSize 0
    ScrDir C:\Users\dekhi\Desktop\gamsworld\FCNetLib\test\225a\
    SysDir C:\GAMS\34\
    LogOption 3
    ErrMsg 1
    ErrorLog 99
    IDE 1
    ResLim 3600
    LstTitleLeftAligned 1
Licensee: Eval License                                   S211214|0002AW-GEN
          Ostfalia Hochschule fuer angewandte Wissenschaften        DCE1645
          C:\Users\dekhi\Documents\GAMS\gamslice.txt
          License Admin: Mohamed Ali Dekhil, dekhil.medali@gmail.com       
          Evaluation license: Not for commercial or production use
GAMS 34.3.0   Copyright (C) 1987-2021 GAMS Development. All rights reserved
--- Starting compilation
--- bchfcnet.gms(34) 2 Mb
--- . decl.gms(15) 2 Mb
--- bchfcnet.gms(38) 2 Mb
--- . mtest4ma.inc(3022) 3 Mb
--- bchfcnet.gms(67) 3 Mb
--- . equs.gms(20) 3 Mb
--- bchfcnet.gms(97) 3 Mb
--- call rm -f bchout_i.gdx startcut.txt startheur.txt cuthist.gdx agap.txt rgap.txt cntfail.txt
--- bchfcnet.gms(118) 3 Mb
--- Starting execution: elapsed 0:00:00.109
--- bchfcnet.gms(3080) 4 Mb
--- GDX File (execute_unload) C:\Users\dekhi\Desktop\gamsworld\FCNetLib\test\net.gdx
--- bchfcnet.gms(3171) 4 Mb
--- GDXin=C:\Users\dekhi\Desktop\gamsworld\FCNetLib\test\points\mtest4ma.gdx
--- GDX File (execute_load) C:\Users\dekhi\Desktop\gamsworld\FCNetLib\test\points\mtest4ma.gdx
--- Generating MIP model master
--- bchfcnet.gms(3175) 5 Mb
---   1,175 rows  1,951 columns  6,826 non-zeroes
---   975 discrete-columns
--- Executing CPLEX (Solvelink=2): elapsed 0:00:00.158

IBM ILOG CPLEX   34.3.0 rac355f3 Released Feb 25, 2021 WEI x86 64bit/MS Window

--- GAMS/Cplex Link licensed for continuous and discrete problems.

Reading parameter(s) from "C:\Users\dekhi\Desktop\gamsworld\FCNetLib\test\cplex.op2"
>>  mipstart 1
Finished reading from "C:\Users\dekhi\Desktop\gamsworld\FCNetLib\test\cplex.op2"

--- Space for names approximately 0.07 Mb
--- Use option 'names no' to turn use of names off
--- GMO memory 0.86 Mb (peak 0.88 Mb)
--- Dictionary memory 0.00 Mb
--- Cplex 20.1.0.0 link memory 0.05 Mb (peak 0.22 Mb)
--- Starting Cplex

Version identifier: 20.1.0.0 | 2020-11-10 | 9bedb6d68
CPXPARAM_Threads                                 1
CPXPARAM_MIP_Display                             4
CPXPARAM_TimeLimit                               3600
CPXPARAM_MIP_Tolerances_AbsMIPGap                0
CPXPARAM_MIP_Tolerances_MIPGap                   0
Generic callback                                 0x50
Processing 1 MIP starts.
MIP start 'm1' defined solution with objective 52148.0000.
1 of 1 MIP starts provided solutions.
MIP start 'm1' defined initial solution with objective 52148.0000.
Tried aggregator 1 time.
MIP Presolve eliminated 0 rows and 1 columns.
Reduced MIP has 1174 rows, 1950 columns, and 4875 nonzeros.
Reduced MIP has 975 binaries, 0 generals, 0 SOSs, and 0 indicators.
Presolve time = 0.01 sec. (2.63 ticks)
Probing changed sense of 31 constraints.
Probing time = 0.00 sec. (2.63 ticks)
Cover probing fixed 0 vars, tightened 685 bounds.
Tried aggregator 1 time.
Detecting symmetries...
MIP Presolve modified 685 coefficients.
Reduced MIP has 1174 rows, 1950 columns, and 4875 nonzeros.
Reduced MIP has 975 binaries, 0 generals, 0 SOSs, and 0 indicators.
Presolve time = 0.00 sec. (3.22 ticks)
Probing time = 0.02 sec. (2.61 ticks)
Cover probing fixed 0 vars, tightened 355 bounds.
Clique table members: 99.
MIP emphasis: balance optimality and feasibility.
MIP search method: dynamic search.
Parallel mode: none, using 1 thread.
Tried aggregator 1 time.
LP Presolve eliminated 2 rows and 401 columns.
Aggregator did 775 substitutions.
Reduced LP has 397 rows, 774 columns, and 2120 nonzeros.
Presolve time = 0.00 sec. (1.21 ticks)
Initializing dual steep norms . . .

Iteration log . . .
Iteration:     1   Dual objective     =          7750.846426
Iteration:    62   Dual objective     =         33823.003135
Iteration:   138   Dual objective     =         37437.039480
Initializing dual steep norms . . .
Root relaxation solution time = 0.00 sec. (3.38 ticks)

        Nodes                                         Cuts/
   Node  Left     Objective  IInf  Best Integer    Best Bound    ItCnt     Gap

*     0+    0                        52148.0000        0.0000           100.00%
Found incumbent of value 52148.000000 after 0.03 sec. (18.27 ticks)
      0     0    37437.0395   105    52148.0000    37437.0395      138   28.21%
      0     0    44167.0494   123    52148.0000     Cuts: 135      254   15.30%
      0     0    46996.0762   116    52148.0000     Cuts: 248      337    9.88%
      0     0    48087.9613    91    52148.0000     Cuts: 181      399    7.79%
      0     0    49232.5056    83    52148.0000     Cuts: 119      450    5.59%
      0     0    49631.0052    85    52148.0000     Cuts: 111      502    4.83%
Detecting symmetries...
      0     0    50121.5816    80    52148.0000      Cuts: 99      562    3.89%
      0     0    50527.0033    80    52148.0000     Cuts: 102      623    3.11%
      0     0    50773.3956    68    52148.0000      Cuts: 95      673    2.64%
      0     0    51077.0029    79    52148.0000      Cuts: 68      715    2.05%
      0     0    51189.8133   110    52148.0000      Cuts: 66      763    1.84%
      0     0    51314.7901    93    52148.0000     Cuts: 116      825    1.60%
      0     0    51487.1931    82    52148.0000      Cuts: 91      900    1.27%
      0     0    51597.3004    86    52148.0000      Cuts: 64      940    1.06%
      0     0    51657.9737    96    52148.0000      Cuts: 83      980    0.94%
      0     0    51693.4350    78    52148.0000      Cuts: 48     1006    0.87%
      0     0    51769.5881    71    52148.0000      Cuts: 40     1043    0.73%
      0     0    51826.0880    81    52148.0000      Cuts: 40     1090    0.62%
      0     0    51833.5765    88    52148.0000      Cuts: 42     1122    0.60%
Detecting symmetries...

Repeating presolve.
Tried aggregator 2 times.
MIP Presolve eliminated 265 rows and 517 columns.
MIP Presolve modified 676 coefficients.
Aggregator did 8 substitutions.
Reduced MIP has 901 rows, 1425 columns, and 3561 nonzeros.
Reduced MIP has 709 binaries, 0 generals, 0 SOSs, and 0 indicators.
Presolve time = 0.02 sec. (2.98 ticks)
Probing fixed 80 vars, tightened 362 bounds.
Probing changed sense of 48 constraints.
Probing time = 0.02 sec. (2.63 ticks)
Cover probing fixed 2 vars, tightened 30 bounds.
Tried aggregator 2 times.
MIP Presolve eliminated 116 rows and 213 columns.
MIP Presolve modified 154 coefficients.
Aggregator did 7 substitutions.
Reduced MIP has 778 rows, 1205 columns, and 3025 nonzeros.
Reduced MIP has 599 binaries, 0 generals, 0 SOSs, and 0 indicators.
Presolve time = 0.00 sec. (4.16 ticks)
Probing fixed 10 vars, tightened 90 bounds.
Probing time = 0.01 sec. (2.06 ticks)
Cover probing fixed 12 vars, tightened 69 bounds.
Tried aggregator 2 times.
MIP Presolve eliminated 26 rows and 47 columns.
MIP Presolve modified 110 coefficients.
Aggregator did 3 substitutions.
Reduced MIP has 749 rows, 1155 columns, and 2902 nonzeros.
Reduced MIP has 575 binaries, 0 generals, 0 SOSs, and 0 indicators.
Presolve time = 0.00 sec. (2.20 ticks)
Probing fixed 2 vars, tightened 72 bounds.
Probing time = 0.00 sec. (1.90 ticks)
Cover probing fixed 0 vars, tightened 27 bounds.
Tried aggregator 1 time.
Detecting symmetries...
MIP Presolve eliminated 9 rows and 14 columns.
MIP Presolve modified 77 coefficients.
Reduced MIP has 740 rows, 1141 columns, and 2872 nonzeros.
Reduced MIP has 568 binaries, 0 generals, 0 SOSs, and 0 indicators.
Presolve time = 0.00 sec. (1.91 ticks)
Represolve time = 0.06 sec. (36.51 ticks)
Probing fixed 0 vars, tightened 20 bounds.
Probing time = 0.00 sec. (1.79 ticks)
Cover probing fixed 0 vars, tightened 20 bounds.
Clique table members: 167.
MIP emphasis: balance optimality and feasibility.
MIP search method: dynamic search.
Parallel mode: none, using 1 thread.
Tried aggregator 1 time.
LP Presolve eliminated 25 rows and 6 columns.
Aggregator did 17 substitutions.
Reduced LP has 1112 rows, 1118 columns, and 7758 nonzeros.
Presolve time = 0.00 sec. (1.14 ticks)
Initializing dual steep norms . . .

Iteration log . . .
Iteration:     1   Scaled dual infeas =             0.000000
Iteration:     2   Dual objective     =         14326.000000
Iteration:    94   Dual objective     =         41116.546590
Iteration:   211   Dual objective     =         48594.715530
Iteration:   301   Dual objective     =         51583.945457
Iteration:   374   Dual objective     =         51823.517376
Initializing dual steep norms . . .
Root relaxation solution time = 0.02 sec. (9.83 ticks)

        Nodes                                         Cuts/
   Node  Left     Objective  IInf  Best Integer    Best Bound    ItCnt     Gap

*     0+    0                        52148.0000    51833.5765             0.60%
Found incumbent of value 52148.000000 after 0.50 sec. (415.65 ticks)
      0     0    51844.3627    60    52148.0000    51844.3627     1520    0.58%
      0     0    51916.9691    35    52148.0000      Cuts: 43     1555    0.44%
      0     0    52068.0797    10    52148.0000      Cuts: 18     1585    0.15%
      0     0    52109.8649    20    52148.0000      Cuts: 29     1604    0.07%
*     0     0      integral     0    52148.0000      Cuts: 40     1609    0.00%
Found incumbent of value 52148.000000 after 0.56 sec. (482.45 ticks)
      0     0        cutoff          52148.0000    52148.0000     1609    0.00%
Elapsed time = 0.56 sec. (482.45 ticks, tree = 0.01 MB, solutions = 2)

Implied bound cuts applied:  86
Flow cuts applied:  249
Mixed integer rounding cuts applied:  68
Multi commodity flow cuts applied:  1
Lift and project cuts applied:  4
Gomory fractional cuts applied:  46

Root node processing (before b&c):
  Real time             =    0.56 sec. (482.56 ticks)
Sequential b&c:
  Real time             =    0.00 sec. (0.00 ticks)
                          ------------
Total (root+branch&cut) =    0.56 sec. (482.56 ticks)

--- MIP status (101): integer optimal solution.
--- Cplex Time: 0.56sec (det. 482.57 ticks)

--- Fixing integer variables and solving final LP...

Version identifier: 20.1.0.0 | 2020-11-10 | 9bedb6d68
CPXPARAM_Advance                                 2
CPXPARAM_Threads                                 1
CPXPARAM_MIP_Display                             4
CPXPARAM_TimeLimit                               3600
CPXPARAM_MIP_Tolerances_AbsMIPGap                0
CPXPARAM_MIP_Tolerances_MIPGap                   0
Tried aggregator 1 time.
LP Presolve eliminated 1174 rows and 1951 columns.
All rows and columns eliminated.
Presolve time = 0.00 sec. (0.75 ticks)

--- Fixed MIP status (1): optimal.
--- Cplex Time: 0.00sec (det. 1.27 ticks)


Proven optimal solution
MIP Solution:        52148.000000    (1609 iterations, 0 nodes)
Final Solve:         52147.999717    (0 iterations)

Best possible:       52148.000000
Absolute gap:            0.000000
Relative gap:            0.000000

--- Reading solution for model master
*** Status: Normal completion
--- Job bchfcnet.gms Stop 02/08/22 17:33:00 elapsed 0:00:00.772
